TCS_Benchmarks/redos_fix/corpus3_output_distinct_971_970_20_0.txt
[ #(),\-A-Z.a-z\/0-9>_]+
([ #(),\-A-Z.a-z\/0-9>_]+)(\s*)
\s*